     Program PWSCF v.6.4.1 starts on 13Aug2019 at 16:49:24

     R & G space division:  proc/nbgrp/npool/nimage =       8
     Waiting for input...
     Reading input from standard input

     Current dimensions of program PWSCF are:
     Max number of different atomic species (ntypx) = 10
     Max number of k-points (npk) =  40000
     Max angular momentum in pseudopotentials (lmaxx) =  3

     Subspace diagonalization in iterative solution of the eigenvalue problem:
     a serial algorithm will be used

     Found symmetry operation: I + (  0.0000  0.0000  0.5000)
     This is a supercell, fractional translations are disabled
     Message from routine setup:
     DEPRECATED: symmetry with ibrav=0, use correct ibrav instead

     bravais-lattice index     =            0
     lattice parameter (alat)  =      14.5131  a.u.
     unit-cell volume          =    2208.2871 (a.u.)^3
     number of atoms/cell      =           16
     number of atomic types    =            1
     number of electrons       =        64.00
     number of Kohn-Sham states=           65
     kinetic-energy cutoff     =      45.0000  Ry
     charge density cutoff     =     180.0000  Ry
     convergence threshold     =      1.0E-10
     mixing beta               =       0.7000
     number of iterations used =            8  plain     mixing
     Exchange-correlation      = PBE ( 1  4  3  4 0 0)

     celldm(1)=  14.513150  celldm(2)=   0.000000  celldm(3)=   0.000000
     celldm(4)=   0.000000  celldm(5)=   0.000000  celldm(6)=   0.000000

     crystal axes: (cart. coord. in units of alat)
               a(1) = (  -0.000000   0.712164   0.712164 )
               a(2) = (   0.712164  -0.000000   0.712164 )
               a(3) = (   0.712164   0.712164  -0.000000 )

     reciprocal axes: (cart. coord. in units 2 pi/alat)
               b(1) = ( -0.702085  0.702085  0.702085 )
               b(2) = (  0.702085 -0.702085  0.702085 )
               b(3) = (  0.702085  0.702085 -0.702085 )

     PseudoPot. # 1 for Si read from file:
     ./Si.pbe-n-rrkjus_psl.1.0.0.UPF
     MD5 check sum: fa25574f73a70a4139f2adfbefec430c
     Pseudo is Ultrasoft + core correction, Zval =  4.0
     Generated using "atomic" code by A. Dal Corso v.6.3
     Using radial grid of 1141 points,  6 beta functions with:
                l(1) =   0
                l(2) =   0
                l(3) =   1
                l(4) =   1
                l(5) =   2
                l(6) =   2
     Q(r) pseudized with 0 coefficients

     atomic species   valence    mass     pseudopotential
        Si             4.00    28.08550     Si( 1.00)

     24 Sym. Ops. (no inversion) found

                                    s                        frac. trans.

      isym =  1     identity

 cryst.   s( 1) = (     1          0          0      )
                  (     0          1          0      )
                  (     0          0          1      )

 cart.    s( 1) = (  1.0000000  0.0000000  0.0000000 )
                  (  0.0000000  1.0000000  0.0000000 )
                  (  0.0000000  0.0000000  1.0000000 )

      isym =  2     180 deg rotation - cart. axis [0,0,1]

[...]

 cryst.   s( 9) = (     0          1          0      )
                  (     0          0          1      )
                  (     1          0          0      )

 cart.    s( 9) = (  0.0000000  0.0000000  1.0000000 )
                  (  1.0000000  0.0000000  0.0000000 )
                  (  0.0000000  1.0000000  0.0000000 )

[...]

 cryst.   s(10) = (    -1          0          1      )
                  (    -1          1          0      )
                  (    -1          0          0      )

 cart.    s(10) = (  0.0000000  0.0000000  1.0000000 )
                  ( -1.0000000  0.0000000  0.0000000 )
                  (  0.0000000 -1.0000000  0.0000000 )

[...]

      isym = 12     120 deg rotation - cart. axis [-1,-1,1]

[...]

      isym = 13     inv. 180 deg rotation - cart. axis [1,1,0]

[...]

      isym = 24     inv.  90 deg rotation - cart. axis [1,0,0]

 cryst.   s(24) = (     0         -1          1      )
                  (     1         -1          0      )
                  (     0         -1          0      )

 cart.    s(24) = ( -1.0000000  0.0000000  0.0000000 )
                  (  0.0000000  0.0000000  1.0000000 )
                  (  0.0000000 -1.0000000  0.0000000 )

   Cartesian axes

     site n.     atom                  positions (alat units)
         1           Si  tau(   1) = (   0.0000000   0.0000000   0.0000000  )
         2           Si  tau(   2) = (   0.1780411   0.1780411   0.1780411  )
         3           Si  tau(   3) = (   0.3560821   0.3560821   0.0000000  )
         4           Si  tau(   4) = (   0.5341232   0.5341232   0.1780411  )
         5           Si  tau(   5) = (   0.3560821   0.0000000   0.3560821  )
         6           Si  tau(   6) = (   0.5341232   0.1780411   0.5341232  )
         7           Si  tau(   7) = (   0.7121642   0.3560821   0.3560821  )
         8           Si  tau(   8) = (   0.8902053   0.5341232   0.5341232  )
         9           Si  tau(   9) = (   0.0000000   0.3560821   0.3560821  )
        10           Si  tau(  10) = (   0.1780411   0.5341232   0.5341232  )
        11           Si  tau(  11) = (   0.3560821   0.7121642   0.3560821  )
        12           Si  tau(  12) = (   0.5341232   0.8902053   0.5341232  )
        13           Si  tau(  13) = (   0.3560821   0.3560821   0.7121642  )
        14           Si  tau(  14) = (   0.5341232   0.5341232   0.8902053  )
        15           Si  tau(  15) = (   0.7121642   0.7121642   0.7121642  )
        16           Si  tau(  16) = (   0.8902053   0.8902053   0.8902053  )

   Crystallographic axes

     site n.     atom                  positions (cryst. coord.)
         1           Si  tau(   1) = (  0.0000000  0.0000000  0.0000000  )
         2           Si  tau(   2) = (  0.1250000  0.1250000  0.1250000  )
         3           Si  tau(   3) = (  0.0000000  0.0000000  0.5000000  )
         4           Si  tau(   4) = (  0.1250000  0.1250000  0.6250000  )
         5           Si  tau(   5) = (  0.0000000  0.5000000  0.0000000  )
         6           Si  tau(   6) = (  0.1250000  0.6250000  0.1250000  )
         7           Si  tau(   7) = (  0.0000000  0.5000000  0.5000000  )
         8           Si  tau(   8) = (  0.1250000  0.6250000  0.6250000  )
         9           Si  tau(   9) = (  0.5000000  0.0000000  0.0000000  )
        10           Si  tau(  10) = (  0.6250000  0.1250000  0.1250000  )
        11           Si  tau(  11) = (  0.5000000  0.0000000  0.5000000  )
        12           Si  tau(  12) = (  0.6250000  0.1250000  0.6250000  )
        13           Si  tau(  13) = (  0.5000000  0.5000000  0.0000000  )
        14           Si  tau(  14) = (  0.6250000  0.6250000  0.1250000  )
        15           Si  tau(  15) = (  0.5000000  0.5000000  0.5000000  )
        16           Si  tau(  16) = (  0.6250000  0.6250000  0.6250000  )

     number of k points=    29
                       cart. coord. in units 2pi/alat
        k(    1) = (   0.0000000   0.0000000   0.0000000), wk =   0.0039062
        k(    2) = (   0.0877607   0.0877607  -0.0877607), wk =   0.0312500
        k(    3) = (   0.1755213   0.1755213  -0.1755213), wk =   0.0312500
        k(    4) = (   0.2632820   0.2632820  -0.2632820), wk =   0.0312500
        k(    5) = (  -0.3510426  -0.3510426   0.3510426), wk =   0.0156250
        k(    6) = (   0.1755213   0.0000000   0.0000000), wk =   0.0234375
        k(    7) = (   0.2632820   0.0877607  -0.0877607), wk =   0.0937500
        k(    8) = (   0.3510426   0.1755213  -0.1755213), wk =   0.0937500
        k(    9) = (  -0.2632820  -0.4388033   0.4388033), wk =   0.0937500
        k(   10) = (  -0.1755213  -0.3510426   0.3510426), wk =   0.0937500
        k(   11) = (  -0.0877607  -0.2632820   0.2632820), wk =   0.0937500
        k(   12) = (   0.0000000  -0.1755213   0.1755213), wk =   0.0468750
        k(   13) = (   0.3510426   0.0000000   0.0000000), wk =   0.0234375
        k(   14) = (   0.4388033   0.0877607  -0.0877607), wk =   0.0937500
        k(   15) = (  -0.1755213  -0.5265639   0.5265639), wk =   0.0937500
        k(   16) = (  -0.0877607  -0.4388033   0.4388033), wk =   0.0937500
        k(   17) = (   0.0000000  -0.3510426   0.3510426), wk =   0.0468750
        k(   18) = (   0.5265639   0.0000000   0.0000000), wk =   0.0234375
        k(   19) = (  -0.0877607  -0.6143246   0.6143246), wk =   0.0937500
        k(   20) = (   0.0000000  -0.5265639   0.5265639), wk =   0.0468750
        k(   21) = (  -0.7020852   0.0000000   0.0000000), wk =   0.0117188
        k(   22) = (   0.3510426   0.1755213   0.0000000), wk =   0.0937500
        k(   23) = (  -0.2632820  -0.4388033   0.6143246), wk =   0.1875000
        k(   24) = (  -0.1755213  -0.3510426   0.5265639), wk =   0.0937500
        k(   25) = (  -0.1755213  -0.5265639   0.7020852), wk =   0.0937500
        k(   26) = (  -0.0877607  -0.4388033   0.6143246), wk =   0.1875000
        k(   27) = (   0.0000000  -0.3510426   0.5265639), wk =   0.0937500
        k(   28) = (  -0.7020852   0.1755213   0.0000000), wk =   0.0468750
        k(   29) = (  -0.7020852   0.3510426   0.0000000), wk =   0.0234375

                       cryst. coord.
        k(    1) = (   0.0000000   0.0000000   0.0000000), wk =   0.0039062
        k(    2) = (   0.0000000   0.0000000   0.1250000), wk =   0.0312500
        k(    3) = (   0.0000000   0.0000000   0.2500000), wk =   0.0312500
        k(    4) = (   0.0000000   0.0000000   0.3750000), wk =   0.0312500
        k(    5) = (   0.0000000   0.0000000  -0.5000000), wk =   0.0156250
        k(    6) = (   0.0000000   0.1250000   0.1250000), wk =   0.0234375
        k(    7) = (   0.0000000   0.1250000   0.2500000), wk =   0.0937500
        k(    8) = (   0.0000000   0.1250000   0.3750000), wk =   0.0937500
        k(    9) = (   0.0000000   0.1250000  -0.5000000), wk =   0.0937500
        k(   10) = (   0.0000000   0.1250000  -0.3750000), wk =   0.0937500
        k(   11) = (   0.0000000   0.1250000  -0.2500000), wk =   0.0937500
        k(   12) = (   0.0000000   0.1250000  -0.1250000), wk =   0.0468750
        k(   13) = (   0.0000000   0.2500000   0.2500000), wk =   0.0234375
        k(   14) = (   0.0000000   0.2500000   0.3750000), wk =   0.0937500
        k(   15) = (   0.0000000   0.2500000  -0.5000000), wk =   0.0937500
        k(   16) = (   0.0000000   0.2500000  -0.3750000), wk =   0.0937500
        k(   17) = (   0.0000000   0.2500000  -0.2500000), wk =   0.0468750
        k(   18) = (   0.0000000   0.3750000   0.3750000), wk =   0.0234375
        k(   19) = (   0.0000000   0.3750000  -0.5000000), wk =   0.0937500
        k(   20) = (   0.0000000   0.3750000  -0.3750000), wk =   0.0468750
        k(   21) = (   0.0000000  -0.5000000  -0.5000000), wk =   0.0117188
        k(   22) = (   0.1250000   0.2500000   0.3750000), wk =   0.0937500
        k(   23) = (   0.1250000   0.2500000  -0.5000000), wk =   0.1875000
        k(   24) = (   0.1250000   0.2500000  -0.3750000), wk =   0.0937500
        k(   25) = (   0.1250000   0.3750000  -0.5000000), wk =   0.0937500
        k(   26) = (   0.1250000   0.3750000  -0.3750000), wk =   0.1875000
        k(   27) = (   0.1250000   0.3750000  -0.2500000), wk =   0.0937500
        k(   28) = (   0.1250000  -0.5000000  -0.3750000), wk =   0.0468750
        k(   29) = (   0.2500000  -0.5000000  -0.2500000), wk =   0.0234375

     Initial potential from superposition of free atoms

     starting charge   63.99105, renormalised to   64.00000
     Starting wfcs are   64 randomized atomic wfcs +    1 random wfcs

     Self-consistent Calculation

     iteration #  1     ecut=    45.00 Ry     beta= 0.70
     Davidson diagonalization with overlap
     ethr =  1.00E-02,  avg # of iterations =  5.5

     Threshold (ethr) on eigenvalues was too large:
     Diagonalizing with lowered threshold

     Davidson diagonalization with overlap
     ethr =  6.86E-04,  avg # of iterations =  2.1

     total energy              =    -182.70330666 Ry
     Harris-Foulkes estimate   =    -182.80579253 Ry
     estimated scf accuracy    <       0.43458555 Ry

[...]

     total energy              =    -182.72135440 Ry
     Harris-Foulkes estimate   =    -182.72135440 Ry
     estimated scf accuracy    <          3.0E-10 Ry

     iteration #  9     ecut=    45.00 Ry     beta= 0.70
     Davidson diagonalization with overlap
     ethr =  4.70E-13,  avg # of iterations =  2.3

     End of self-consistent calculation

          k = 0.0000 0.0000 0.0000 ( 11191 PWs)   bands (ev):

    -5.8350  -3.5578  -3.5578  -3.5578  -3.5578  -1.7688  -1.7688  -1.7688
    -1.7688  -1.7688  -1.7688  -0.8905  -0.8905  -0.8905  -0.8905   3.1841
     3.1841   3.1841   3.1841   3.1841   3.1841   4.8006   4.8006   4.8006
     4.8006   4.8006   4.8006   4.8006   4.8006   5.9812   5.9812   5.9812
     6.7353   6.7353   6.7353   6.7353   6.7353   6.7353   7.4432   7.4432
     7.4432   7.4432   8.5353   8.5353   8.5353   9.0980   9.3321   9.3321
     9.3321   9.3321   9.3321   9.3321   9.3321   9.3321  13.6881  13.6881
    13.6881  13.6881  13.6993  13.8615  15.9020  15.9020  15.9020  15.9020
    15.9020

     occupation numbers
     1.0000   1.0000   1.0000   1.0000   1.0000   1.0000   1.0000   1.0000
     1.0000   1.0000   1.0000   1.0000   1.0000   1.0000   1.0000   1.0000
     1.0000   1.0000   1.0000   1.0000   1.0000   1.0000   1.0000   1.0000
     1.0000   1.0000   1.0000   1.0000   1.0000   1.0000   1.0000   1.0000
     0.0000   0.0000   0.0000   0.0000   0.0000   0.0000   0.0000   0.0000
     0.0000   0.0000   0.0000   0.0000   0.0000   0.0000   0.0000   0.0000
     0.0000   0.0000   0.0000   0.0000   0.0000   0.0000   0.0000   0.0000
     0.0000   0.0000   0.0000   0.0000   0.0000   0.0000   0.0000   0.0000
     0.0000

[...]

          k =-0.3510-0.3510 0.3510 ( 11276 PWs)   bands (ev):

[...]

          k = 0.0000-0.3510 0.5266 ( 11244 PWs)   bands (ev):

[...]

          k =-0.7021 0.3510 0.0000 ( 11180 PWs)   bands (ev):

    -4.5310  -4.5310  -4.5310  -4.5310  -2.7826  -2.7826  -2.7825  -2.7825
    -0.5409  -0.5409  -0.5409  -0.5409   1.7089   1.7089   1.7089   1.7089
     1.8488   1.8488   1.8488   1.8488   3.3271   3.3271   3.3271   3.3271
     3.4537   3.4537   3.4537   3.4537   4.5790   4.5790   4.5790   4.5790
     8.4246   8.4246   8.4246   8.4246   8.8475   8.8475   8.8475   8.8475
     9.8034   9.8034   9.8034   9.8034  10.1899  10.1899  10.1899  10.1899
    10.4975  10.4976  10.4976  10.4976  11.1481  11.1481  11.1481  11.1481
    11.4218  11.4218  11.4218  11.4218  12.9455  12.9455  12.9455  12.9455
    13.6968

     occupation numbers
     1.0000   1.0000   1.0000   1.0000   1.0000   1.0000   1.0000   1.0000
     1.0000   1.0000   1.0000   1.0000   1.0000   1.0000   1.0000   1.0000
     1.0000   1.0000   1.0000   1.0000   1.0000   1.0000   1.0000   1.0000
     1.0000   1.0000   1.0000   1.0000   1.0000   1.0000   1.0000   1.0000
     0.0000   0.0000   0.0000   0.0000   0.0000   0.0000   0.0000   0.0000
     0.0000   0.0000   0.0000   0.0000   0.0000   0.0000   0.0000   0.0000
     0.0000   0.0000   0.0000   0.0000   0.0000   0.0000   0.0000   0.0000
     0.0000   0.0000   0.0000   0.0000   0.0000   0.0000   0.0000   0.0000
     0.0000

     highest occupied, lowest unoccupied level (ev):     5.9812    6.6001

!    total energy              =    -182.72135440 Ry
     Harris-Foulkes estimate   =    -182.72135440 Ry
     estimated scf accuracy    <          1.4E-11 Ry

     The total energy is the sum of the following terms:

     one-electron contribution =      40.01043775 Ry
     hartree contribution      =       8.95391204 Ry
     xc contribution           =     -98.26328368 Ry
     ewald contribution        =    -133.42242051 Ry

     convergence has been achieved in   9 iterations

     Forces acting on atoms (cartesian axes, Ry/au):

     atom    1 type  1   force =     0.00000000    0.00000000   -0.00000000
     atom    2 type  1   force =    -0.00000001   -0.00000001   -0.00000001
     atom    3 type  1   force =     0.00000000   -0.00000000   -0.00000023
     atom    4 type  1   force =     0.00000001    0.00000001   -0.00000001
     atom    5 type  1   force =    -0.00000000   -0.00000023    0.00000000
     atom    6 type  1   force =     0.00000001   -0.00000001    0.00000001
     atom    7 type  1   force =     0.00000023    0.00000000    0.00000000
     atom    8 type  1   force =     0.00000002   -0.00000002   -0.00000002
     atom    9 type  1   force =    -0.00000023   -0.00000000    0.00000000
     atom   10 type  1   force =    -0.00000001    0.00000001    0.00000001
     atom   11 type  1   force =    -0.00000000    0.00000023    0.00000000
     atom   12 type  1   force =    -0.00000002    0.00000002   -0.00000002
     atom   13 type  1   force =    -0.00000000    0.00000000    0.00000023
     atom   14 type  1   force =    -0.00000002   -0.00000002    0.00000002
     atom   15 type  1   force =    -0.00000000    0.00000000   -0.00000000
     atom   16 type  1   force =     0.00000002    0.00000002    0.00000002
     The non-local contrib.  to forces
     atom    1 type  1   force =     0.00000000   -0.00000000    0.00000000
     atom    2 type  1   force =    -0.00000008   -0.00000008   -0.00000008
     atom    3 type  1   force =    -0.00000000    0.00000000    0.00000020
     atom    4 type  1   force =     0.00000008    0.00000008   -0.00000008
     atom    5 type  1   force =    -0.00000000    0.00000020    0.00000000
     atom    6 type  1   force =     0.00000008   -0.00000008    0.00000008
     atom    7 type  1   force =    -0.00000020   -0.00000000    0.00000000
     atom    8 type  1   force =     0.00000002   -0.00000002   -0.00000002
     atom    9 type  1   force =     0.00000020   -0.00000000    0.00000000
     atom   10 type  1   force =    -0.00000008    0.00000008    0.00000008
     atom   11 type  1   force =    -0.00000000   -0.00000020    0.00000000
     atom   12 type  1   force =    -0.00000002    0.00000002   -0.00000002
     atom   13 type  1   force =    -0.00000000    0.00000000   -0.00000020
     atom   14 type  1   force =    -0.00000002   -0.00000002    0.00000002
     atom   15 type  1   force =    -0.00000000   -0.00000000    0.00000000
     atom   16 type  1   force =     0.00000002    0.00000002    0.00000002
     The ionic contribution  to forces
     atom    1 type  1   force =    -0.00000000   -0.00000000    0.00000000
     atom    2 type  1   force =    -0.00000003   -0.00000003   -0.00000003
     atom    3 type  1   force =     0.00000000    0.00000000   -0.00000015
     atom    4 type  1   force =     0.00000003    0.00000003   -0.00000003
     atom    5 type  1   force =     0.00000000   -0.00000015   -0.00000000
     atom    6 type  1   force =     0.00000003   -0.00000003    0.00000003
     atom    7 type  1   force =     0.00000015    0.00000000   -0.00000000
     atom    8 type  1   force =     0.00000003   -0.00000003   -0.00000003
     atom    9 type  1   force =    -0.00000015    0.00000000   -0.00000000
     atom   10 type  1   force =    -0.00000003    0.00000003    0.00000003
     atom   11 type  1   force =     0.00000000    0.00000015   -0.00000000
     atom   12 type  1   force =    -0.00000003    0.00000003   -0.00000003
     atom   13 type  1   force =    -0.00000000   -0.00000000    0.00000015
     atom   14 type  1   force =    -0.00000003   -0.00000003    0.00000003
     atom   15 type  1   force =     0.00000000    0.00000000   -0.00000000
     atom   16 type  1   force =     0.00000003    0.00000003    0.00000003
     The local contribution  to forces
     atom    1 type  1   force =    -0.00000000    0.00000000    0.00000000
     atom    2 type  1   force =    -0.00000062   -0.00000062   -0.00000062
     atom    3 type  1   force =     0.00000000    0.00000000   -0.00000063
     atom    4 type  1   force =     0.00000062    0.00000062   -0.00000062
     atom    5 type  1   force =     0.00000000   -0.00000063    0.00000000
     atom    6 type  1   force =     0.00000062   -0.00000062    0.00000062
     atom    7 type  1   force =     0.00000063    0.00000000    0.00000000
     atom    8 type  1   force =     0.00000048   -0.00000048   -0.00000048
     atom    9 type  1   force =    -0.00000063    0.00000000   -0.00000000
     atom   10 type  1   force =    -0.00000062    0.00000062    0.00000062
     atom   11 type  1   force =    -0.00000000    0.00000063    0.00000000
     atom   12 type  1   force =    -0.00000048    0.00000048   -0.00000048
     atom   13 type  1   force =     0.00000000    0.00000000    0.00000063
     atom   14 type  1   force =    -0.00000048   -0.00000048    0.00000048
     atom   15 type  1   force =    -0.00000000   -0.00000000    0.00000000
     atom   16 type  1   force =     0.00000048    0.00000048    0.00000048
     The core correction contribution to forces
     atom    1 type  1   force =    -0.00000000   -0.00000000    0.00000000
     atom    2 type  1   force =     0.00000000    0.00000000    0.00000000
     atom    3 type  1   force =    -0.00000000   -0.00000000   -0.00000003
     atom    4 type  1   force =    -0.00000000   -0.00000000    0.00000000
     atom    5 type  1   force =    -0.00000000   -0.00000003   -0.00000000
     atom    6 type  1   force =    -0.00000000    0.00000000   -0.00000000
     atom    7 type  1   force =     0.00000003    0.00000000   -0.00000000
     atom    8 type  1   force =     0.00000000   -0.00000000   -0.00000000
     atom    9 type  1   force =    -0.00000003   -0.00000000   -0.00000000
     atom   10 type  1   force =     0.00000000   -0.00000000   -0.00000000
     atom   11 type  1   force =     0.00000000    0.00000003    0.00000000
     atom   12 type  1   force =    -0.00000000    0.00000000   -0.00000000
     atom   13 type  1   force =     0.00000000    0.00000000    0.00000003
     atom   14 type  1   force =    -0.00000000   -0.00000000    0.00000000
     atom   15 type  1   force =    -0.00000000    0.00000000    0.00000000
     atom   16 type  1   force =     0.00000000    0.00000000    0.00000000
     The Hubbard contrib.    to forces
     atom    1 type  1   force =     0.00000000    0.00000000    0.00000000
     atom    2 type  1   force =     0.00000000    0.00000000    0.00000000
     atom    3 type  1   force =     0.00000000    0.00000000    0.00000000
     atom    4 type  1   force =     0.00000000    0.00000000    0.00000000
     atom    5 type  1   force =     0.00000000    0.00000000    0.00000000
     atom    6 type  1   force =     0.00000000    0.00000000    0.00000000
     atom    7 type  1   force =     0.00000000    0.00000000    0.00000000
     atom    8 type  1   force =     0.00000000    0.00000000    0.00000000
     atom    9 type  1   force =     0.00000000    0.00000000    0.00000000
     atom   10 type  1   force =     0.00000000    0.00000000    0.00000000
     atom   11 type  1   force =     0.00000000    0.00000000    0.00000000
     atom   12 type  1   force =     0.00000000    0.00000000    0.00000000
     atom   13 type  1   force =     0.00000000    0.00000000    0.00000000
     atom   14 type  1   force =     0.00000000    0.00000000    0.00000000
     atom   15 type  1   force =     0.00000000    0.00000000    0.00000000
     atom   16 type  1   force =     0.00000000    0.00000000    0.00000000
     The SCF correction term to forces
     atom    1 type  1   force =    -0.00000000    0.00000000   -0.00000000
     atom    2 type  1   force =     0.00000072    0.00000072    0.00000072
     atom    3 type  1   force =     0.00000000   -0.00000000    0.00000037
     atom    4 type  1   force =    -0.00000072   -0.00000072    0.00000072
     atom    5 type  1   force =     0.00000000    0.00000037    0.00000000
     atom    6 type  1   force =    -0.00000072    0.00000072   -0.00000072
     atom    7 type  1   force =    -0.00000037    0.00000000   -0.00000000
     atom    8 type  1   force =    -0.00000052    0.00000052    0.00000052
     atom    9 type  1   force =     0.00000037    0.00000000   -0.00000000
     atom   10 type  1   force =     0.00000072   -0.00000072   -0.00000072
     atom   11 type  1   force =     0.00000000   -0.00000037    0.00000000
     atom   12 type  1   force =     0.00000052   -0.00000052    0.00000052
     atom   13 type  1   force =    -0.00000000    0.00000000   -0.00000037
     atom   14 type  1   force =     0.00000052    0.00000052   -0.00000052
     atom   15 type  1   force =     0.00000000    0.00000000    0.00000000
     atom   16 type  1   force =    -0.00000052   -0.00000052   -0.00000052

     Total force =     0.000001     Total SCF correction =     0.000003
     SCF correction compared to forces is large: reduce conv_thr to get better values

     Computing stress (Cartesian axis) and pressure

          total   stress  (Ry/bohr**3)                   (kbar)     P=   -0.08
  -0.00000055  -0.00000000   0.00000000         -0.08     -0.00      0.00
   0.00000000  -0.00000055   0.00000000          0.00     -0.08      0.00
   0.00000000   0.00000000  -0.00000055          0.00      0.00     -0.08

     kinetic stress (kbar)   2143.74      0.00      0.00
                                0.00   2143.74     -0.00
                                0.00     -0.00   2143.74

     local   stress (kbar)     31.33     -0.00     -0.00
                               -0.00     31.33     -0.00
                               -0.00     -0.00     31.33

     nonloc. stress (kbar)   1562.83     -0.00      0.00
                               -0.00   1562.83     -0.00
                                0.00     -0.00   1562.83

     hartree stress (kbar)    198.82     -0.00      0.00
                               -0.00    198.82      0.00
                                0.00      0.00    198.82

     exc-cor stress (kbar)   2886.83      0.00     -0.00
                                0.00   2886.83     -0.00
                               -0.00     -0.00   2886.83

     corecor stress (kbar)  -3860.99     -0.00     -0.00
                               -0.00  -3860.99      0.00
                               -0.00      0.00  -3860.99

     ewald   stress (kbar)  -2962.65      0.00      0.00
                                0.00  -2962.65      0.00
                                0.00      0.00  -2962.65

     hubbard stress (kbar)      0.00      0.00      0.00
                                0.00      0.00      0.00
                                0.00      0.00      0.00

     london  stress (kbar)      0.00      0.00      0.00
                                0.00      0.00      0.00
                                0.00      0.00      0.00

     DFT-D3  stress (kbar)      0.00      0.00      0.00
                                0.00      0.00      0.00
                                0.00      0.00      0.00

     XDM     stress (kbar)      0.00      0.00      0.00
                                0.00      0.00      0.00
                                0.00      0.00      0.00

     dft-nl  stress (kbar)      0.00      0.00      0.00
                                0.00      0.00      0.00
                                0.00      0.00      0.00

     TS-vdW  stress (kbar)      0.00      0.00      0.00
                                0.00      0.00      0.00
                                0.00      0.00      0.00

     Writing output data file si.save/

     General routines

     Parallel routines

   This run was terminated on:  16:53:33  13Aug2019

   JOB DONE.